solution status: optimal solution found
objective value:                      104688.26662244
d11(0,0)                                            1 	(obj:0)
d11(1,1)                                            1 	(obj:0)
d11(2,3)                                            1 	(obj:0)
d11(2,5)                                            1 	(obj:0)
d11(3,9)                                            1 	(obj:0)
d11(3,11)                                           1 	(obj:0)
d11(3,13)                                           1 	(obj:0)
d12(2,4)                                            1 	(obj:0)
d12(2,6)                                            1 	(obj:0)
d12(3,8)                                            1 	(obj:0)
d12(3,10)                                           1 	(obj:0)
d12(3,12)                                           1 	(obj:0)
d12(3,14)                                           1 	(obj:0)
d21(2,3)                                            1 	(obj:0)
d21(3,7)                                            1 	(obj:0)
d21(3,8)                                            1 	(obj:0)
d21(3,9)                                            1 	(obj:0)
y2(2,4)                               441.25994002014 	(obj:0)
y2(2,6)                               441.25994002014 	(obj:0)
y2(3,8)                              1385.48851144895 	(obj:0)
y2(3,10)                             1385.48851144895 	(obj:0)
y2(3,12)                             1385.48851144895 	(obj:0)
y2(3,14)                             1385.48851144895 	(obj:0)
STE(1,1)                             4137.75010111115 	(obj:0)
STE(0,0)                                         6300 	(obj:0)
STE(1,2)                                         5796 	(obj:0)
STE(2,3)                             2625.75010111092 	(obj:0)
STE(2,4)                             4052.94704413029 	(obj:0)
STE(2,5)                             4283.99999999977 	(obj:0)
STE(2,6)                             5711.19694301913 	(obj:0)
STE(3,7)                             2121.75010111092 	(obj:0)
STE(3,8)                             3437.96418698743 	(obj:0)
STE(3,9)                             3548.94704413035 	(obj:0)
STE(3,10)                            4865.16113000679 	(obj:0)
STE(3,11)                            3779.99999999977 	(obj:0)
STE(3,12)                            5096.21408587627 	(obj:0)
STE(3,13)                            5207.19694301913 	(obj:0)
STE(3,14)                            6523.41102889564 	(obj:0)
AVE(2)                               3315.65537776224 	(obj:0)
WB(3)                                3315.65799770399 	(obj:0)
y1(1,1)                              1492.42490899996 	(obj:0)
y1(2,3)                              907.200000000209 	(obj:0)
y1(2,5)                              907.200000000209 	(obj:0)
AVE(3)                               3315.65799770399 	(obj:0)
WG(1)                                3248.33172520918 	(obj:10)
WG(2)                                3315.65537776224 	(obj:10)
BG(1)                                947.960773770411 	(obj:10)
BG(2)                                283.468846727794 	(obj:10)
BG(3)                                2673.40993877551 	(obj:10)
AVE(1)                               3248.33172520918 	(obj:0)
